[ma. 03. april 14:20:38 +0200 2023]  ./input/alternate_g_np/50-3-2.gcc
Set parameter Username
Academic license - for non-commercial use only - expires 2024-03-28
Set parameter TimeLimit to value 1800
Set parameter PreCrush to value 1
Set parameter LazyConstraints to value 1
Gurobi Optimizer version 10.0.1 build v10.0.1rc0 (linux64)

CPU model: AMD Ryzen 9 5950X 16-Core Processor, instruction set [SSE2|AVX|AVX2]
Thread count: 16 physical cores, 32 logical processors, using up to 32 threads

Optimize a model with 59 rows, 500 columns and 1400 nonzeros
Model fingerprint: 0x11b549df
Variable types: 0 continuous, 500 integer (500 binary)
Coefficient statistics:
  Matrix range     [1e+00, 1e+00]
  Objective range  [3e+00, 1e+02]
  Bounds range     [1e+00, 1e+00]
  RHS range        [1e+00, 1e+00]
Presolve time: 0.00s
Presolved: 59 rows, 500 columns, 1400 nonzeros
Variable types: 0 continuous, 500 integer (500 binary)

Root relaxation: objective 2.648000e+03, 9 iterations, 0.00 seconds (0.00 work units)

    Nodes    |    Current Node    |     Objective Bounds      |     Work
 Expl Unexpl |  Obj  Depth IntInf | Incumbent    BestBd   Gap | It/Node Time

     0     0 2648.00000    0    9          - 2648.00000      -     -    0s
     0     0 2648.00000    0   18          - 2648.00000      -     -    0s
     0     0 2648.00000    0    6          - 2648.00000      -     -    0s
     0     0 2648.00000    0    3          - 2648.00000      -     -    0s
     0     0 2648.00000    0    2          - 2648.00000      -     -    0s
     0     0 2648.00000    0    -          - 2648.00000      -     -    0s
     0     0 2648.00000    0   13          - 2648.00000      -     -    0s
     0     0 2648.00000    0    -          - 2648.00000      -     -    0s
     0     0 2648.00000    0   15          - 2648.00000      -     -    0s
     0     0 2648.00000    0    -          - 2648.00000      -     -    0s
     0     0 2648.00000    0   17          - 2648.00000      -     -    0s
     0     2 2648.00000    0    4          - 2648.00000      -     -    0s
 16075  9933 2648.00000   97    4          - 2648.00000      -  18.2    5s
 29362 19070 2648.00000   52   40          - 2648.00000      -  21.6   10s
 40520 26272 2463.75000   85   31          - 2648.00000      -  30.7   15s
 51123 32533 2559.00000   70   58          - 2648.00000      -  39.9   20s
 61311 38332 2635.72414   47   89          - 2648.00000      -  48.3   25s
 71400 43682 infeasible   58               - 2648.00000      -  53.6   30s
 80988 49286 2640.26766   52  106          - 2648.00000      -  59.7   35s
 90112 53687 2355.25817   72   31          - 2648.00000      -  63.8   40s
H93771 52442                    2648.0000000 2648.00000  0.00%  65.3   42s

Cutting planes:
  User: 47
  Gomory: 16
  MIR: 3
  Flow cover: 5
  Zero half: 10
  RLT: 2
  Lazy constraints: 22

Explored 93771 nodes (6127845 simplex iterations) in 42.51 seconds (26.95 work units)
Thread count was 32 (of 32 available processors)

Solution count 1: 2648 

Optimal solution found (tolerance 1.00e-04)
Best objective 2.648000000000e+03, best bound 2.648000000000e+03, gap 0.0000%

User-callback calls 191089, time in user-callback 17.14 sec
Minimal separator inequalities added: 722606
Indegree inequalities added: 741544
Passed solution check
[ma. 03. april 14:21:20 +0200 2023]  done

